p cnf 289 664
c 1 boolean_CORE_X86
c 2 boolean_CORE_X86_64
c 3 boolean_CORE_CORTEX_M0
c 4 boolean_CORE_CORTEX_M3
c 5 boolean_CORE_CORTEX_M4
c 6 boolean_GENERIC_WQ_IRQ_NONSTOP
c 7 boolean_GENERIC_WQ_IRQ_PROFILE
c 8 boolean_GENERIC_WQ_IRQ
c 9 boolean_GENERIC_WQ_LOAD
c 10 boolean_GENERIC_WQ_NONSTOP
c 11 boolean_GENERIC_WQ_PM
c 12 boolean_GENERIC_WQ_PROFILE
c 13 boolean_GENERIC_WQ
c 14 boolean_GENERIC_SOFTWARE_TIMER_64
c 15 boolean_GENERIC_SOFTWARE_TIMER_32
c 16 boolean_GENERIC_SOFTWARE_TIMER
c 17 boolean_GENERIC_SDIO_SPI_CRC
c 18 boolean_GENERIC_SDIO_SPI
c 19 boolean_GENERIC_MMCSD
c 20 boolean_GENERIC_GPIO_BUS
c 21 boolean_GENERIC_BUFFERING_PROXY
c 22 boolean_FAMILY_GENERIC_POSIX
c 23 boolean_FAMILY_LPC11XX
c 24 boolean_FAMILY_LPC11EXX
c 25 boolean_FAMILY_LPC13XX
c 26 boolean_FAMILY_LPC13UXX
c 27 boolean_FAMILY_LPC17XX
c 28 boolean_FAMILY_LPC43XX_M4
c 29 boolean_FAMILY_LPC43XX_M0APP
c 30 boolean_FAMILY_LPC43XX_M0SUB
c 31 boolean_FAMILY_STM32F0XX
c 32 boolean_FAMILY_STM32F1XX
c 33 boolean_PLATFORM_LPC_ADC
c 34 boolean_PLATFORM_LPC_ADC_DMA
c 35 boolean_PLATFORM_LPC_ADC_DMA_STREAM
c 36 boolean_PLATFORM_LPC_ADC_NO_DEINIT
c 37 boolean_PLATFORM_LPC_ADC_ONESHOT
c 38 boolean_PLATFORM_LPC_ADC_SHARED
c 39 boolean_PLATFORM_LPC_ADC_BASE
c 40 boolean_PLATFORM_LPC_BOD_NO_DEINIT
c 41 boolean_PLATFORM_LPC_BOD
c 42 BITMAP_INT_MASTER_BITMAP_int_PLATFORM_LPC_CAN_SJW
c 43 BIT_0_BITMAP_int_PLATFORM_LPC_CAN_SJW
c 44 BIT_1_BITMAP_int_PLATFORM_LPC_CAN_SJW
c 45 BIT_2_BITMAP_int_PLATFORM_LPC_CAN_SJW
c 46 BITMAP_INT_MASTER_BITMAP_int_PLATFORM_LPC_CAN_SP
c 47 BIT_0_BITMAP_int_PLATFORM_LPC_CAN_SP
c 48 BIT_1_BITMAP_int_PLATFORM_LPC_CAN_SP
c 49 BIT_2_BITMAP_int_PLATFORM_LPC_CAN_SP
c 50 BIT_3_BITMAP_int_PLATFORM_LPC_CAN_SP
c 51 BIT_4_BITMAP_int_PLATFORM_LPC_CAN_SP
c 52 BIT_5_BITMAP_int_PLATFORM_LPC_CAN_SP
c 53 BIT_6_BITMAP_int_PLATFORM_LPC_CAN_SP
c 54 boolean_PLATFORM_LPC_CAN_EXACT_RATE
c 55 boolean_PLATFORM_LPC_CAN_FILTERS
c 56 boolean_PLATFORM_LPC_CAN_NO_DEINIT
c 57 boolean_PLATFORM_LPC_CAN_PM
c 58 boolean_PLATFORM_LPC_CAN_WATERMARK
c 59 boolean_PLATFORM_LPC_CAN
c 60 boolean_PLATFORM_LPC_DAC
c 61 boolean_PLATFORM_LPC_DAC_DMA
c 62 boolean_PLATFORM_LPC_DAC_NO_DEINIT
c 63 boolean_PLATFORM_LPC_DAC_BASE
c 64 boolean_PLATFORM_LPC_IAP
c 65 boolean_PLATFORM_LPC_EEPROM
c 66 boolean_PLATFORM_LPC_EMC_NO_DEINIT
c 67 boolean_PLATFORM_LPC_EMC
c 68 boolean_PLATFORM_LPC_ETHERNET
c 69 boolean_PLATFORM_LPC_FAST_GPIO_BUS
c 70 boolean_PLATFORM_LPC_FLASH
c 71 boolean_PLATFORM_LPC_GPDMA_SYNC
c 72 boolean_PLATFORM_LPC_SERIAL_DMA
c 73 int_PLATFORM_LPC_GPDMA_PRIORITY_EQ_0
c 74 int_PLATFORM_LPC_GPDMA_PRIORITY_EQ_OTHERVAL
c 75 boolean_PLATFORM_LPC_GPDMA
c 76 boolean_PLATFORM_LPC_GPPWM_NO_DEINIT
c 77 boolean_PLATFORM_LPC_GPPWM
c 78 boolean_PLATFORM_LPC_GPTIMER
c 79 boolean_PLATFORM_LPC_GPTIMER_CAPTURE
c 80 boolean_PLATFORM_LPC_GPTIMER_COUNTER
c 81 boolean_PLATFORM_LPC_GPTIMER_NO_DEINIT
c 82 boolean_PLATFORM_LPC_GPTIMER_PM
c 83 boolean_PLATFORM_LPC_GPTIMER_PWM
c 84 boolean_PLATFORM_LPC_GPTIMER_BASE
c 85 boolean_PLATFORM_LPC_I2C
c 86 boolean_PLATFORM_LPC_I2C_NO_DEINIT
c 87 boolean_PLATFORM_LPC_I2C_PM
c 88 boolean_PLATFORM_LPC_I2C_SLAVE
c 89 boolean_PLATFORM_LPC_I2C_BASE
c 90 boolean_PLATFORM_LPC_I2S_DMA
c 91 boolean_PLATFORM_LPC_I2S_NO_DEINIT
c 92 boolean_PLATFORM_LPC_I2S_128FS
c 93 boolean_PLATFORM_LPC_I2S_192FS
c 94 boolean_PLATFORM_LPC_I2S_256FS
c 95 boolean_PLATFORM_LPC_I2S_384FS
c 96 boolean_PLATFORM_LPC_I2S_512FS
c 97 boolean_PLATFORM_LPC_I2S_BASE
c 98 boolean_PLATFORM_LPC_NO_DEINIT
c 99 boolean_PLATFORM_LPC_RIT_NO_DEINIT
c 100 boolean_PLATFORM_LPC_RIT
c 101 boolean_PLATFORM_LPC_RTC_NO_DEINIT
c 102 boolean_PLATFORM_LPC_RTC
c 103 boolean_PLATFORM_LPC_SCT_NO_DEINIT
c 104 boolean_PLATFORM_LPC_SCT_PM
c 105 boolean_PLATFORM_LPC_SCT_PWM
c 106 boolean_PLATFORM_LPC_SCT_TIMER
c 107 boolean_PLATFORM_LPC_SCT_BASE
c 108 boolean_PLATFORM_LPC_PININT_BASE
c 109 boolean_PLATFORM_LPC_PININT_NO_DEINIT
c 110 boolean_PLATFORM_LPC_PININT
c 111 boolean_PLATFORM_LPC_SDMMC
c 112 boolean_PLATFORM_LPC_SGPIO_NO_DEINIT
c 113 boolean_PLATFORM_LPC_SGPIO_BASE
c 114 boolean_PLATFORM_LPC_ONE_WIRE_SSP_SEARCH
c 115 boolean_PLATFORM_LPC_ONE_WIRE_SSP
c 116 boolean_PLATFORM_LPC_SPI
c 117 BITMAP_INT_MASTER_BITMAP_int_PLATFORM_LPC_SPI_DMA_CHAIN
c 118 BIT_0_BITMAP_int_PLATFORM_LPC_SPI_DMA_CHAIN
c 119 BIT_1_BITMAP_int_PLATFORM_LPC_SPI_DMA_CHAIN
c 120 BIT_2_BITMAP_int_PLATFORM_LPC_SPI_DMA_CHAIN
c 121 BIT_3_BITMAP_int_PLATFORM_LPC_SPI_DMA_CHAIN
c 122 BIT_4_BITMAP_int_PLATFORM_LPC_SPI_DMA_CHAIN
c 123 BIT_5_BITMAP_int_PLATFORM_LPC_SPI_DMA_CHAIN
c 124 BIT_6_BITMAP_int_PLATFORM_LPC_SPI_DMA_CHAIN
c 125 BIT_7_BITMAP_int_PLATFORM_LPC_SPI_DMA_CHAIN
c 126 BIT_8_BITMAP_int_PLATFORM_LPC_SPI_DMA_CHAIN
c 127 BIT_9_BITMAP_int_PLATFORM_LPC_SPI_DMA_CHAIN
c 128 BIT_10_BITMAP_int_PLATFORM_LPC_SPI_DMA_CHAIN
c 129 BIT_11_BITMAP_int_PLATFORM_LPC_SPI_DMA_CHAIN
c 130 BIT_12_BITMAP_int_PLATFORM_LPC_SPI_DMA_CHAIN
c 131 BIT_13_BITMAP_int_PLATFORM_LPC_SPI_DMA_CHAIN
c 132 BIT_14_BITMAP_int_PLATFORM_LPC_SPI_DMA_CHAIN
c 133 BIT_15_BITMAP_int_PLATFORM_LPC_SPI_DMA_CHAIN
c 134 BIT_16_BITMAP_int_PLATFORM_LPC_SPI_DMA_CHAIN
c 135 boolean_PLATFORM_LPC_SPI_DMA
c 136 boolean_PLATFORM_LPC_SSP_NO_DEINIT
c 137 boolean_PLATFORM_LPC_SSP_PM
c 138 boolean_PLATFORM_LPC_SSP_RC
c 139 boolean_PLATFORM_LPC_SSP_BASE
c 140 boolean_PLATFORM_LPC_ONE_WIRE_UART
c 141 boolean_PLATFORM_LPC_SERIAL
c 142 boolean_PLATFORM_LPC_SERIAL_POLL
c 143 boolean_PLATFORM_LPC_UART_NO_DEINIT
c 144 boolean_PLATFORM_LPC_UART_PM
c 145 boolean_PLATFORM_LPC_UART_RC
c 146 boolean_PLATFORM_LPC_UART_WATERMARK
c 147 boolean_PLATFORM_LPC_UART_BASE
c 148 boolean_PLATFORM_LPC_WDT
c 149 boolean_USB_DEVICE_CDC
c 150 boolean_USB_DEVICE_COMPOSITE
c 151 boolean_USB_DEVICE_DFU
c 152 boolean_USB_DEVICE_HID
c 153 boolean_USB_DEVICE_MSC
c 154 boolean_USB_DEVICE_STRINGS
c 155 boolean_USB_TRACE
c 156 int_USB_DEVICE_CONTROL_REQUESTS_EQ_2
c 157 int_USB_DEVICE_CONTROL_REQUESTS_EQ_OTHERVAL
c 158 boolean_USB_DEVICE
c 159 int_PLATFORM_USB_DEVICE_EP_REQUESTS_EQ_4
c 160 int_PLATFORM_USB_DEVICE_EP_REQUESTS_EQ_OTHERVAL
c 161 boolean_PLATFORM_USB_DEVICE
c 162 int_PLATFORM_USB_DEVICE_POOL_SIZE_EQ_12
c 163 int_PLATFORM_USB_DEVICE_POOL_SIZE_EQ_OTHERVAL
c 164 boolean_PLATFORM_USB_DMA
c 165 boolean_PLATFORM_USB_DOUBLE_BUFFERING
c 166 boolean_USB_DEVICE_HS
c 167 boolean_PLATFORM_USB_HS
c 168 boolean_PLATFORM_USB_NO_DEINIT
c 169 boolean_PLATFORM_USB
c 170 boolean_PLATFORM_LPC_WAKEUPINT_NO_DEINIT
c 171 boolean_PLATFORM_LPC_WAKEUPINT
c 172 boolean_PLATFORM_STM32_GPTIMER_PM
c 173 boolean_PLATFORM_STM32_UART_PM
c 174 boolean_PLATFORM_LPC_PM_DEEPSLEEP
c 175 boolean_PLATFORM_LPC_PM_PD
c 176 boolean_PM
c 177 string_GEN_ADC_EQ_gen_1
c 178 string_GEN_CAN_EQ_gen_1
c 179 string_GEN_CAN_EQ_gen_2
c 180 string_GEN_DAC_EQ_gen_1
c 181 string_GEN_FLASH_EQ_gen_1
c 182 string_GEN_FLASH_EQ_lpc43xx
c 183 string_GEN_I2C_EQ_gen_1
c 184 string_GEN_PIN_EQ_gen_1
c 185 string_GEN_PIN_EQ_gen_2
c 186 string_GEN_PIN_EQ_gen_3
c 187 string_GEN_PIN_EQ_lpc17xx
c 188 string_GEN_PIN_EQ_lpc43xx
c 189 string_GEN_PINBUS_EQ_gen_2
c 190 string_GEN_PINBUS_EQ_gen_3
c 191 string_GEN_PINBUS_EQ_lpc17xx
c 192 string_GEN_PININT_EQ_gen_2
c 193 string_GEN_PININT_EQ_gen_3
c 194 string_GEN_PININT_EQ_lpc17xx
c 195 string_GEN_RTC_EQ_gen_1
c 196 string_GEN_SPI_EQ_gen_1
c 197 string_GEN_UART_EQ_gen_1
c 198 string_GEN_UART_EQ_gen_2
c 199 boolean_FAMILY_LPC43XX
c 200 boolean_CORE_CORTEX_SYSTICK_NO_DEINIT
c 201 boolean_CORE_CORTEX_NO_DEINIT
c 202 boolean_CORE_CORTEX_FPU
c 203 BITMAP_HEX_MASTER_BITMAP_hex_CORE_CORTEX_MEMORY_PATTERN
c 204 SIGN_BITMAP_hex_CORE_CORTEX_MEMORY_PATTERN
c 205 BIT_0_BITMAP_hex_CORE_CORTEX_MEMORY_PATTERN
c 206 boolean_CORE_CORTEX_MEMORY_DEBUG
c 207 boolean_CORE_CORTEX_SYSTICK
c 208 boolean_PLATFORM_LINUX_CONSOLE
c 209 boolean_PLATFORM_LINUX_EVENT_QUEUE
c 210 boolean_PLATFORM_LINUX_MMF
c 211 boolean_PLATFORM_LINUX_RTC
c 212 boolean_PLATFORM_LINUX_SERIAL
c 213 boolean_PLATFORM_LINUX_SIGNAL_HANDLER
c 214 boolean_PLATFORM_LINUX_TIMER
c 215 boolean_PLATFORM_LINUX_UDP
c 216 int_PLATFORM_LPC_I2S_FS_EQ_128
c 217 int_PLATFORM_LPC_I2S_FS_EQ_192
c 218 int_PLATFORM_LPC_I2S_FS_EQ_256
c 219 int_PLATFORM_LPC_I2S_FS_EQ_384
c 220 int_PLATFORM_LPC_I2S_FS_EQ_512
c 221 boolean_PLATFORM_STM32_GPTIMER_NO_DEINIT
c 222 boolean_PLATFORM_STM32_SPI_NO_DEINIT
c 223 boolean_PLATFORM_STM32_UART_NO_DEINIT
c 224 boolean_PLATFORM_STM32_NO_DEINIT
c 225 BITMAP_INT_MASTER_BITMAP_int_PLATFORM_STM32_CAN_SJW
c 226 BIT_0_BITMAP_int_PLATFORM_STM32_CAN_SJW
c 227 BIT_1_BITMAP_int_PLATFORM_STM32_CAN_SJW
c 228 BIT_2_BITMAP_int_PLATFORM_STM32_CAN_SJW
c 229 BITMAP_INT_MASTER_BITMAP_int_PLATFORM_STM32_CAN_SP
c 230 BIT_0_BITMAP_int_PLATFORM_STM32_CAN_SP
c 231 BIT_1_BITMAP_int_PLATFORM_STM32_CAN_SP
c 232 BIT_2_BITMAP_int_PLATFORM_STM32_CAN_SP
c 233 BIT_3_BITMAP_int_PLATFORM_STM32_CAN_SP
c 234 BIT_4_BITMAP_int_PLATFORM_STM32_CAN_SP
c 235 BIT_5_BITMAP_int_PLATFORM_STM32_CAN_SP
c 236 BIT_6_BITMAP_int_PLATFORM_STM32_CAN_SP
c 237 boolean_PLATFORM_STM32_CAN_NO_DEINIT
c 238 boolean_PLATFORM_STM32_CAN_WATERMARK
c 239 boolean_PLATFORM_STM32_CAN_EXACT_RATE
c 240 boolean_PLATFORM_STM32_CAN_PM
c 241 boolean_PLATFORM_STM32_CAN
c 242 boolean_PLATFORM_STM32_DMA1
c 243 boolean_PLATFORM_STM32_DMA2
c 244 boolean_PLATFORM_STM32_SERIAL_DMA
c 245 boolean_PLATFORM_STM32_SPI
c 246 int_PLATFORM_STM32_DMA_PRIORITY_EQ_0
c 247 int_PLATFORM_STM32_DMA_PRIORITY_EQ_OTHERVAL
c 248 boolean_PLATFORM_STM32_DMA
c 249 boolean_PLATFORM_STM32_EXTI_NO_DEINIT
c 250 boolean_PLATFORM_STM32_EXTI
c 251 boolean_PLATFORM_STM32_GPTIMER
c 252 boolean_PLATFORM_STM32_TIM1
c 253 boolean_PLATFORM_STM32_TIM10
c 254 boolean_PLATFORM_STM32_TIM11
c 255 boolean_PLATFORM_STM32_TIM12
c 256 boolean_PLATFORM_STM32_TIM13
c 257 boolean_PLATFORM_STM32_TIM14
c 258 boolean_PLATFORM_STM32_TIM15
c 259 boolean_PLATFORM_STM32_TIM16
c 260 boolean_PLATFORM_STM32_TIM17
c 261 boolean_PLATFORM_STM32_TIM2
c 262 boolean_PLATFORM_STM32_TIM3
c 263 boolean_PLATFORM_STM32_TIM4
c 264 boolean_PLATFORM_STM32_TIM5
c 265 boolean_PLATFORM_STM32_TIM6
c 266 boolean_PLATFORM_STM32_TIM7
c 267 boolean_PLATFORM_STM32_TIM8
c 268 boolean_PLATFORM_STM32_TIM9
c 269 boolean_PLATFORM_STM32_GPTIMER_BASE
c 270 boolean_PLATFORM_STM32_SPI1
c 271 boolean_PLATFORM_STM32_SPI2
c 272 boolean_PLATFORM_STM32_SPI3
c 273 boolean_PLATFORM_STM32_SPI_RC
c 274 boolean_PLATFORM_STM32_SPI_BASE
c 275 boolean_PLATFORM_STM32_SERIAL
c 276 boolean_PLATFORM_STM32_UART4
c 277 boolean_PLATFORM_STM32_UART5
c 278 boolean_PLATFORM_STM32_UART_RC
c 279 boolean_PLATFORM_STM32_UART_WATERMARK
c 280 boolean_PLATFORM_STM32_USART1
c 281 boolean_PLATFORM_STM32_USART2
c 282 boolean_PLATFORM_STM32_USART3
c 283 boolean_PLATFORM_STM32_USART4
c 284 boolean_PLATFORM_STM32_USART5
c 285 boolean_PLATFORM_STM32_USART6
c 286 boolean_PLATFORM_STM32_USART7
c 287 boolean_PLATFORM_STM32_USART8
c 288 boolean_PLATFORM_STM32_UART_BASE
-2 -3 0
-4 -2 0
-5 -2 0
-6 -2 0
-4 -3 0
-5 -3 0
-6 -3 0
-4 -5 0
-4 -6 0
-5 -6 0
4 5 6 2 3 0
6 -203 0
4 5 6 -207 0
4 5 6 -202 0
4 5 6 -208 0
19 -18 0
9 -7 0
9 -8 0
14 -10 0
14 -11 0
14 -12 0
14 -13 0
-23 -24 0
-23 -25 0
-23 -26 0
-23 -27 0
-23 -28 0
-23 -29 0
-23 -30 0
-23 -31 0
-23 -32 0
-23 -33 0
-25 -24 0
-24 -26 0
-24 -27 0
-24 -28 0
-24 -29 0
-24 -30 0
-24 -31 0
-24 -32 0
-24 -33 0
-25 -26 0
-25 -27 0
-25 -28 0
-25 -29 0
-25 -30 0
-25 -31 0
-25 -32 0
-25 -33 0
-27 -26 0
-26 -28 0
-26 -29 0
-26 -30 0
-26 -31 0
-26 -32 0
-26 -33 0
-27 -28 0
-27 -29 0
-27 -30 0
-27 -31 0
-27 -32 0
-27 -33 0
-28 -29 0
-28 -30 0
-28 -31 0
-28 -32 0
-28 -33 0
-30 -29 0
-31 -29 0
-29 -32 0
-29 -33 0
-30 -31 0
-30 -32 0
-30 -33 0
-31 -32 0
-31 -33 0
-32 -33 0
23 25 24 27 26 28 30 31 29 32 33 -6 0
23 25 24 27 26 28 30 31 29 32 33 -5 0
23 25 24 27 26 28 30 31 29 32 33 -4 0
23 25 24 27 26 28 30 31 29 32 33 -2 0
23 25 24 27 26 28 30 31 29 32 33 -3 0
4 5 6 2 3 -23 0
4 5 6 2 3 -24 0
4 5 6 2 3 -25 0
4 5 6 2 3 -26 0
4 5 6 2 3 -27 0
4 5 6 2 3 -28 0
4 5 6 2 3 -29 0
4 5 6 2 3 -30 0
4 5 6 2 3 -31 0
4 5 6 2 3 -32 0
4 5 6 2 3 -33 0
2 3 -23 0
4 -24 0
4 -25 0
5 -26 0
5 -27 0
5 -28 0
6 -29 0
4 -30 0
4 -31 0
4 -32 0
5 -33 0
204 -207 0
207 -204 0
207 -205 0
207 -206 0
-204 -205 -207 0
205 -204 -207 0
206 -204 -205 -207 0
-206 -205 0
202 -201 0
208 -201 0
201 -202 -208 0
200 -30 0
200 -31 0
200 -29 0
30 31 29 -200 0
23 -209 0
23 -210 0
23 -211 0
23 -212 0
23 -213 0
23 -214 0
23 -215 0
23 -216 0
32 33 -242 0
32 33 -249 0
32 33 -251 0
32 33 -270 0
32 33 -225 0
32 33 -275 0
32 33 -289 0
226 -242 0
242 -226 0
242 -227 0
242 -228 0
242 -229 0
227 228 229 -226 -242 0
-226 -228 -229 -242 0
-226 -227 -229 -242 0
230 -242 0
242 -230 0
242 -231 0
242 -232 0
242 -233 0
242 -234 0
242 -235 0
242 -236 0
242 -237 0
231 232 233 234 235 236 237 -230 -242 0
-230 -235 -236 -237 -242 0
-230 -234 -236 -237 -242 0
-230 -233 -236 -237 -242 0
25 24 27 26 28 200 -40 0
28 -42 0
28 200 -60 0
28 200 -64 0
25 27 200 -66 0
200 -68 0
200 -69 0
25 24 27 26 28 200 -70 0
25 24 27 26 28 200 -71 0
28 200 -76 0
28 -78 0
25 24 27 26 28 200 -85 0
25 24 27 26 28 200 -90 0
28 200 -98 0
25 24 27 26 28 200 -99 0
27 28 200 -101 0
28 200 -103 0
200 -108 0
200 -112 0
200 -114 0
25 24 27 26 28 200 -140 0
25 24 27 26 28 200 -148 0
25 24 27 26 28 200 -149 0
225 -238 0
242 -238 0
238 -242 -225 0
242 -239 0
249 -243 0
32 -243 0
249 -244 0
32 -244 0
225 -250 0
251 -250 0
250 -251 -225 0
270 -252 0
225 -222 0
270 -222 0
222 -270 -225 0
289 -276 0
33 -245 0
289 -245 0
249 -245 0
249 -246 0
275 -246 0
275 -271 0
32 275 -271 0
33 275 -271 0
32 33 -271 0
275 -272 0
32 275 -272 0
33 275 -272 0
32 33 -272 0
33 -273 0
275 -273 0
225 -223 0
275 -223 0
223 -225 -275 0
275 -274 0
33 270 -253 0
32 33 -253 0
270 -253 0
32 270 -253 0
33 -254 0
270 -254 0
270 -255 0
33 -255 0
33 -256 0
270 -256 0
33 -257 0
270 -257 0
270 -258 0
32 270 -258 0
33 270 -258 0
32 33 -258 0
270 -259 0
32 -259 0
32 -260 0
270 -260 0
32 -261 0
270 -261 0
32 270 -262 0
32 33 -262 0
270 -262 0
33 270 -262 0
32 33 -263 0
33 270 -263 0
32 270 -263 0
270 -263 0
33 -264 0
270 -264 0
33 -265 0
270 -265 0
32 270 -266 0
32 33 -266 0
270 -266 0
33 270 -266 0
32 33 -267 0
33 270 -267 0
32 270 -267 0
270 -267 0
270 -268 0
33 -268 0
33 -269 0
270 -269 0
33 -277 0
289 -277 0
289 -278 0
33 -278 0
225 -224 0
289 -224 0
224 -225 -289 0
289 -279 0
289 -280 0
32 33 -281 0
33 289 -281 0
32 289 -281 0
289 -281 0
33 289 -282 0
289 -282 0
32 33 -282 0
32 289 -282 0
32 33 -283 0
33 289 -283 0
32 289 -283 0
289 -283 0
289 -284 0
32 -284 0
32 -285 0
289 -285 0
32 -286 0
289 -286 0
32 -287 0
289 -287 0
32 -288 0
289 -288 0
27 26 28 200 33 -170 0
25 24 27 26 28 200 32 33 -177 0
-247 -248 0
247 248 -249 0
249 -247 0
249 -248 0
178 -27 0
25 24 27 26 28 200 -178 0
178 -200 0
178 -28 0
178 -24 0
178 -25 0
178 -26 0
179 -28 0
28 -179 0
180 -25 0
25 200 -180 0
180 -200 0
181 -200 0
28 200 -181 0
181 -28 0
182 -27 0
25 24 27 26 28 -182 0
182 -28 0
182 -25 0
182 -26 0
182 -24 0
183 -200 0
200 -183 0
184 -25 0
25 24 27 26 28 200 -184 0
184 -26 0
184 -28 0
184 -24 0
184 -27 0
184 -200 0
186 -26 0
24 26 -186 0
186 -24 0
187 -25 0
25 27 -187 0
187 -27 0
188 -28 0
28 -188 0
189 -200 0
200 -189 0
185 -33 0
32 33 -185 0
185 -32 0
190 -26 0
24 26 -190 0
190 -24 0
191 -200 0
25 27 200 -191 0
191 -27 0
191 -25 0
192 -28 0
28 -192 0
193 -26 0
24 26 -193 0
193 -24 0
194 -27 0
25 27 200 -194 0
194 -200 0
194 -25 0
195 -28 0
28 -195 0
196 -28 0
28 200 -196 0
196 -200 0
197 -200 0
25 24 27 26 28 200 -197 0
197 -28 0
197 -27 0
197 -24 0
197 -25 0
197 -26 0
198 -28 0
25 24 27 26 28 200 33 -198 0
198 -25 0
198 -24 0
198 -26 0
198 -200 0
198 -27 0
198 -33 0
199 -32 0
32 -199 0
43 -60 0
60 -43 0
60 -44 0
60 -45 0
60 -46 0
44 45 46 -43 -60 0
-43 -45 -46 -60 0
-43 -44 -46 -60 0
47 -60 0
60 -47 0
60 -48 0
60 -49 0
60 -50 0
60 -51 0
60 -52 0
60 -53 0
60 -54 0
48 49 50 51 52 53 54 -47 -60 0
-47 -52 -53 -54 -60 0
-47 -51 -53 -54 -60 0
-47 -50 -53 -54 -60 0
40 -34 0
76 -35 0
40 -35 0
76 -36 0
40 -36 0
40 -37 0
99 -37 0
37 -40 -99 0
40 -38 0
40 -39 0
99 -41 0
42 -41 0
41 -42 -99 0
177 -55 0
60 -55 0
60 -56 0
200 -56 0
99 -57 0
60 -57 0
57 -60 -99 0
60 -58 0
177 -58 0
60 -59 0
64 -61 0
64 -62 0
76 -62 0
99 -63 0
64 -63 0
63 -64 -99 0
99 -67 0
68 -67 0
67 -68 -99 0
76 -72 0
99 -77 0
78 -77 0
77 -78 -99 0
85 -79 0
85 -80 0
85 -81 0
99 -82 0
85 -82 0
82 -85 -99 0
85 -83 0
177 -83 0
25 24 27 26 -84 0
85 -84 0
90 -86 0
99 -87 0
90 -87 0
87 -90 -99 0
177 -88 0
90 -88 0
90 -89 0
98 -91 0
99 -92 0
98 -92 0
92 -98 -99 0
65 -71 0
65 -25 -66 0
65 -27 -66 0
25 24 27 26 28 200 66 71 -65 0
25 24 27 26 28 200 71 -65 0
140 -116 0
148 -141 0
111 -112 0
25 24 27 26 28 200 112 -111 0
99 -100 0
101 -100 0
100 -99 -101 0
99 -102 0
103 -102 0
102 -99 -103 0
99 -104 0
108 -104 0
104 -99 -108 0
108 -105 0
177 -105 0
108 -106 0
108 -107 0
148 -142 0
76 -73 0
148 -73 0
148 -143 0
114 -113 0
99 -113 0
113 -99 -114 0
140 -117 0
140 -136 0
76 -136 0
99 -137 0
140 -137 0
137 -99 -140 0
140 -138 0
177 -138 0
140 -139 0
99 -144 0
148 -144 0
144 -99 -148 0
177 -145 0
148 -145 0
148 -146 0
148 -147 0
177 -172 0
24 26 -172 0
242 -240 0
177 -240 0
242 -241 0
177 -241 0
270 -173 0
177 -173 0
177 -174 0
289 -174 0
25 24 27 26 28 200 170 -162 0
170 -162 0
25 24 27 26 28 200 32 33 -162 0
32 33 170 -162 0
165 -200 -170 0
170 -165 0
28 200 170 -165 0
200 170 -165 0
28 200 -165 0
27 170 -166 0
170 -166 0
27 32 33 -166 0
32 33 170 -166 0
170 -168 0
200 -168 0
169 -99 -170 0
99 225 -169 0
99 170 -169 0
32 33 99 -169 0
225 170 -169 0
170 -169 0
32 33 170 -169 0
25 24 27 26 28 200 225 -169 0
25 24 27 26 28 200 170 -169 0
25 24 27 26 28 200 32 33 -169 0
169 -225 -170 0
-175 -176 0
175 176 -24 -177 0
175 176 -25 -177 0
175 176 -26 -177 0
175 176 -27 -177 0
175 176 -28 -177 0
175 176 -200 -177 0
25 24 27 26 28 200 -175 0
25 24 27 26 28 200 -176 0
177 -175 0
177 -176 0
25 27 28 200 -176 0
-93 -94 0
-93 -95 0
-93 -96 0
-93 -97 0
-94 -95 0
-94 -96 0
-94 -97 0
-95 -96 0
-95 -97 0
-96 -97 0
93 94 95 96 97 -98 0
98 -93 0
98 -94 0
98 -95 0
98 -96 0
98 -97 0
-74 -75 0
74 75 -76 0
76 -75 0
76 -74 0
118 -136 0
136 -118 0
136 -119 0
136 -120 0
136 -121 0
136 -122 0
136 -123 0
136 -124 0
136 -125 0
136 -126 0
136 -127 0
136 -128 0
136 -129 0
136 -130 0
136 -131 0
136 -132 0
136 -133 0
136 -134 0
136 -135 0
119 129 130 131 132 133 134 135 120 121 122 123 124 125 126 127 128 -118 -136 0
-118 -134 -135 -136 0
-118 -133 -135 -136 0
-118 -132 -135 -136 0
-118 -131 -135 -136 0
-118 -130 -135 -136 0
-118 -129 -135 -136 0
-118 -135 -128 -136 0
-118 -135 -127 -136 0
-118 -135 -126 -136 0
-118 -135 -125 -136 0
-118 -135 -124 -136 0
-118 -135 -123 -136 0
-118 -135 -122 -136 0
-118 -135 -121 -136 0
-118 -135 -120 -136 0
-118 -119 -135 -136 0
116 -115 0
109 -25 -111 0
109 -27 -111 0
109 -200 -111 0
25 27 200 -109 0
111 -109 0
111 -110 0
99 -110 0
110 -99 -111 0
99 -171 0
172 -171 0
171 -99 -172 0
162 -159 0
221 -97 0
97 -221 0
220 -96 0
96 -220 0
219 -95 0
95 -219 0
218 -94 0
94 -218 0
94 95 96 97 217 -98 0
-97 -217 0
98 -217 0
-95 -217 0
-94 -217 0
-96 -217 0
-160 -161 0
160 161 -26 -162 0
160 161 -27 -162 0
160 161 -28 -162 0
160 161 -32 -162 0
160 161 -33 -162 0
162 -161 0
32 33 162 -161 0
27 26 28 162 -161 0
27 26 28 32 33 -161 0
162 -160 0
32 33 162 -160 0
27 26 28 162 -160 0
27 26 28 32 33 -160 0
-163 -164 0
163 164 -162 -165 0
165 -163 0
162 -163 0
165 -164 0
162 -164 0
159 -150 0
159 -151 0
159 -152 0
159 -153 0
159 -167 0
168 -167 0
159 -154 0
159 -155 0
159 -156 0
-157 -158 0
157 158 -159 0
159 -158 0
159 -157 0